knapPI_15_20_1000_1
n 20
c 994
z 999
time 0.00
1,96,94,1
2,507,506,0
3,417,416,0
4,993,992,0
5,651,649,0
6,237,237,0
7,459,457,0
8,816,815,0
9,447,446,0
10,423,422,0
11,792,791,0
12,360,359,0
13,669,667,0
14,600,598,0
15,9,7,1
16,546,544,0
17,336,334,0
18,768,766,0
19,996,994,0
20,894,893,1
